47
120
84	3
83	2
80	2
79	2
78	1
77	2
76	1
75	2
74	2
72	1
70	1
69	2
67	1
65	2
64	2
63	2
61	4
60	1
59	2
58	4
56	1
55	2
54	1
53	3
52	2
51	3
50	3
48	1
47	4
46	2
45	1
44	3
43	3
42	1
41	2
40	4
38	2
37	2
35	3
34	1
32	2
30	2
29	5
28	3
26	3
25	1
24	1
